
Gurobi 9.1.2 (win64) logging started Tue Dec  7 13:25:00 2021

Gurobi Optimizer version 9.1.2 build v9.1.2rc0 (win64)
Thread count: 8 physical cores, 8 logical processors, using up to 8 threads
Optimize a model with 1 rows, 16 columns and 15 nonzeros
Model fingerprint: 0x22414154
Variable types: 1 continuous, 15 integer (15 binary)
Coefficient statistics:
  Matrix range     [1e+00, 1e+01]
  Objective range  [1e+00, 1e+00]
  Bounds range     [1e+01, 1e+01]
  RHS range        [1e+01, 1e+01]
Presolve time: 0.00s
Presolved: 1 rows, 16 columns, 15 nonzeros
Variable types: 1 continuous, 15 integer (15 binary)

Root simplex log...

Iteration    Objective       Primal Inf.    Dual Inf.      Time
       0   -1.2376391e+01   1.440724e-01   0.000000e+00     14s
       1   -1.2376391e+01   0.000000e+00   0.000000e+00     14s

Root relaxation: objective -1.237639e+01, 1 iterations, 0.00 seconds

    Nodes    |    Current Node    |     Objective Bounds      |     Work
 Expl Unexpl |  Obj  Depth IntInf | Incumbent    BestBd   Gap | It/Node Time

*    0     0               0     -12.3763910  -12.37639  0.00%     -   14s

Cutting planes:
  Lazy constraints: 1

Explored 0 nodes (1 simplex iterations) in 14.38 seconds
Thread count was 8 (of 8 available processors)

Solution count 1: -12.3764 
No other solutions better than -12.3764

Optimal solution found (tolerance 1.00e-04)
Best objective -1.237639095184e+01, best bound -1.237639095184e+01, gap 0.0000%

User-callback calls 79, time in user-callback 18.05 sec
